0 472346 
1 471268 
2 468278 
3 467666 
4 466804 
5 465962 
6 465594 
7 465164 
8 464754 
9 463636 
10 463260 
11 460520 
12 460390 
13 459868 
14 458726 
15 457360 
16 454094 
17 452686 
18 450594 
19 449218 
20 446586 
21 445436 
22 444920 
23 444364 
24 442946 
25 442366 
26 440766 
27 440634 
28 438434 
29 437606 
30 435958 
31 435888 
32 433650 
33 432388 
34 432380 
35 432370 
36 429454 
37 429382 
38 427980 
39 423444 
40 422302 
41 421756 
42 421226 
43 414602 
44 413188 
45 412050 
46 408494 
47 407330 
48 406752 
49 402776 
50 402776 

